12
Benzene C6H6, D6h symmetry
C       0.000000    1.396792    0.000000
C       1.209657    0.698396    0.000000
C       1.209657   -0.698396    0.000000
C       0.000000   -1.396792    0.000000
C      -1.209657   -0.698396    0.000000
C      -1.209657    0.698396    0.000000
H       0.000000    2.479452    0.000000
H       2.147078    1.239726    0.000000
H       2.147078   -1.239726    0.000000
H       0.000000   -2.479452    0.000000
H      -2.147078   -1.239726    0.000000
H      -2.147078    1.239726    0.000000
