18
all-trans C8H10 polyene r(C=C)=1.34 r(C-C)=1.45
C       0.00000000      0.00000000      0.00000000
C       1.18314977      0.62909189      0.00000000
C       2.46342378     -0.05164187      0.00000000
C       3.64657356      0.57745002      0.00000000
C       4.92684757     -0.10328374      0.00000000
C       6.10999734      0.52580815      0.00000000
C       7.39027135     -0.15492562      0.00000000
C       8.57342113      0.47416628      0.00000000
H      -0.96241288     -0.51172400      0.00000000
H      -0.03804045     -1.08933600      0.00000000
H       1.10254701      1.71610762      0.00000000
H       2.54402655     -1.13865760      0.00000000
H       3.56597079      1.66446575      0.00000000
H       5.00745033     -1.19029947      0.00000000
H       6.02939458      1.61282388      0.00000000
H       7.47087412     -1.24194134      0.00000000
H       9.53583400      0.98589028      0.00000000
H       8.61146158      1.56350228      0.00000000
