4
Geom 1 -2.133964223634562
H           0.0000000000000000       0.0000000000000000       0.0000000000000000
H           0.0000000000000000       0.0000000000000000       0.7400000000000001
H           0.0000000000000000       0.0000000000000000       1.4800000000000002
H           0.0000000000000000       0.0000000000000000       2.2200000000000002
4
Geom 2 -2.185071915515558
H           0.0000000000000000       0.0000000000000000      -0.0274750607028691
H           0.0000000000000000       0.0000000000000000       0.6159840597262379
H           0.0000000000000000       0.0000000000000000       1.6104895794997800
H           0.0000000000000000       0.0000000000000000       2.2410014214768506
4
Geom 3 -2.2238900216439292
H           0.0000000000000000      -0.0000000000000000      -0.1445297081714551
H          -0.0000000000000001       0.0000000000000002       0.5645501156535152
H           0.0000000000000000      -0.0000000000000000       1.6556060167292879
H          -0.0000000000000000       0.0000000000000000       2.3643735757886497
4
Geom 4 -2.2424778293619916
H          -0.0000000000000001      -0.0000000000000002      -0.2509575578252262
H          -0.0000000000000001       0.0000000000000003       0.4938092324766535
H           0.0000000000000000      -0.0000000000000000       1.7407998245972709
H          -0.0000000000000001       0.0000000000000000       2.4563485007512984
4
Geom 5 -2.2544232527764465
H          -0.0000000000000000      -0.0000000000000003      -0.3390775553361129
H          -0.0000000000000002       0.0000000000000003       0.3814552382744176
H           0.0000000000000001      -0.0000000000000001       1.8234421607441431
H          -0.0000000000000002       0.0000000000000001       2.5741801563175466
4
Geom 6 -2.2604496480381733
H          -0.0000000000000001      -0.0000000000000005      -0.4320587942016671
H          -0.0000000000000001       0.0000000000000005       0.2966457620075219
H           0.0000000000000001      -0.0000000000000002       1.9169220450088904
H          -0.0000000000000001       0.0000000000000002       2.6584909871852460
4
Geom 7 -2.263987751963506
H          -0.0000000000000000      -0.0000000000000005      -0.5245333864105545
H          -0.0000000000000002       0.0000000000000006       0.1952056720978630
H           0.0000000000000003      -0.0000000000000003       2.0149666616353641
H          -0.0000000000000003       0.0000000000000002       2.7543610526773139
4
Geom 8 -2.2656722453397453
H           0.0000000000000000      -0.0000000000000005      -0.6181053961579305
H          -0.0000000000000004       0.0000000000000006       0.1071731859795362
H           0.0000000000000005      -0.0000000000000003       2.1106668650998754
H          -0.0000000000000005       0.0000000000000002       2.8402653450785009
4
Geom 9 -2.266559039764544
H           0.0000000000000000      -0.0000000000000006      -0.7069207136854991
H          -0.0000000000000004       0.0000000000000008       0.0124798105899853
H           0.0000000000000006      -0.0000000000000003       2.2002021273001477
H          -0.0000000000000007       0.0000000000000002       2.9342387757953454
4
Geom 10 -2.2670064297865924
H           0.0000000000000000      -0.0000000000000006      -0.7970865406587303
H          -0.0000000000000005       0.0000000000000009      -0.0737626141500051
H           0.0000000000000008      -0.0000000000000003       2.2888382484336671
H          -0.0000000000000008       0.0000000000000002       3.0220109063750447
4
Geom 11 -2.2672270724599057
H          -0.0000000000000000      -0.0000000000000006      -0.8827653501147428
H          -0.0000000000000005       0.0000000000000010      -0.1590478577202123
H           0.0000000000000008      -0.0000000000000003       2.3734447973746171
H          -0.0000000000000009       0.0000000000000001       3.1083684104603111
4
Geom 12 -2.2673358010941014
H          -0.0000000000000001      -0.0000000000000006      -0.9650061510174776
H          -0.0000000000000003       0.0000000000000011      -0.2408975828109609
H           0.0000000000000009      -0.0000000000000002       2.4552815558672125
H          -0.0000000000000009       0.0000000000000000       3.1906221779611958
4
Geom 13 -2.267390779822002
H           0.0000000000000000      -0.0000000000000005      -1.0446334365744807
H          -0.0000000000000004       0.0000000000000012      -0.3206150466277953
H           0.0000000000000009      -0.0000000000000003       2.5350124374143603
H          -0.0000000000000010       0.0000000000000001       3.2702360457878812
4
Geom 14 -2.2674179370054595
H           0.0000000000000000      -0.0000000000000004      -1.1212536790309982
H          -0.0000000000000004       0.0000000000000012      -0.3974372527085953
H           0.0000000000000009      -0.0000000000000004       2.6118683385191797
H          -0.0000000000000009       0.0000000000000001       3.3468225932203768
4
Geom 15 -2.2674309158772505
H           0.0000000000000000      -0.0000000000000003      -1.1940548580212231
H          -0.0000000000000003       0.0000000000000012      -0.4703602070019339
H           0.0000000000000008      -0.0000000000000003       2.6848113226993484
H          -0.0000000000000009       0.0000000000000001       3.4196037423237700
4
Geom 16 -2.26743707671953
H          -0.0000000000000001      -0.0000000000000003      -1.2629686775172466
H          -0.0000000000000001       0.0000000000000013      -0.5392920794380547
H           0.0000000000000007      -0.0000000000000003       2.7537455481241047
H          -0.0000000000000008      -0.0000000000000000       3.4885152088311582
4
Geom 17 -2.2674399628134965
H          -0.0000000000000001      -0.0000000000000002      -1.3277266868456137
H           0.0000000000000001       0.0000000000000013      -0.6040179562329959
H           0.0000000000000007      -0.0000000000000003       2.8184654102783164
H          -0.0000000000000007      -0.0000000000000000       3.5532792328002549
4
Geom 18 -2.2674412628844727
H          -0.0000000000000002      -0.0000000000000001      -1.3873660288608698
H           0.0000000000000004       0.0000000000000013      -0.6636259211034302
H           0.0000000000000007      -0.0000000000000002       2.8780676290436542
H          -0.0000000000000007      -0.0000000000000001       3.6129243209206074
4
Geom 19 -2.2674418211028065
H          -0.0000000000000002      -0.0000000000000001      -1.4408616497269457
H           0.0000000000000005       0.0000000000000013      -0.7171096159903374
H           0.0000000000000007      -0.0000000000000002       2.9315489871079210
H          -0.0000000000000008      -0.0000000000000001       3.6664222786093230
4
Geom 20 -2.267442045527044
H          -0.0000000000000001      -0.0000000000000001      -1.4870441180520668
H           0.0000000000000006       0.0000000000000013      -0.7632944335859743
H           0.0000000000000008      -0.0000000000000003       2.9777339821083446
H          -0.0000000000000009      -0.0000000000000001       3.7126045695296535
4
Geom 21 -2.2674421255705752
H          -0.0000000000000000      -0.0000000000000001      -1.5242867491374987
H           0.0000000000000005       0.0000000000000013      -0.8005428712013816
H           0.0000000000000006      -0.0000000000000005       3.0149832557083327
H          -0.0000000000000007       0.0000000000000001       3.7498463646305047
4
Geom 22 -2.267442148560885
H           0.0000000000000000      -0.0000000000000002      -1.5508161201361144
H           0.0000000000000005       0.0000000000000014      -0.8270754429126439
H           0.0000000000000006      -0.0000000000000006       3.0415162765780051
H          -0.0000000000000007       0.0000000000000001       3.7763752864707119
4
Geom 23 -2.2674421530712108
H           0.0000000000000001      -0.0000000000000001      -1.5660651232885643
H           0.0000000000000004       0.0000000000000013      -0.8423247995145269
H           0.0000000000000006      -0.0000000000000006       3.0567656434756336
H          -0.0000000000000007       0.0000000000000001       3.7916242793274151
4
Geom 24 -2.267442153495498
H           0.0000000000000001      -0.0000000000000001      -1.5718593057938002
H           0.0000000000000004       0.0000000000000014      -0.8481184390266158
H           0.0000000000000006      -0.0000000000000006       3.0625591727387635
H          -0.0000000000000007       0.0000000000000001       3.7974185720816109
4
Geom 25 -2.26744215350512
H           0.0000000000000001      -0.0000000000000001      -1.5729889238289814
H           0.0000000000000004       0.0000000000000015      -0.8492477433010338
H           0.0000000000000006      -0.0000000000000006       3.0636884202486270
H          -0.0000000000000007       0.0000000000000001       3.7985482468813476
4
Geom 26 -2.267442153505001
H           0.0000000000000001      -0.0000000000000000      -1.5730504760510062
H           0.0000000000000004       0.0000000000000014      -0.8493092051442813
H           0.0000000000000005      -0.0000000000000006       3.0637498665300624
H          -0.0000000000000007       0.0000000000000001       3.7986098146651841
