34
all-trans C16H18 polyene r(C=C)=1.34 r(C-C)=1.45
C       0.00000000      0.00000000      0.00000000
C       1.18314977      0.62909189      0.00000000
C       2.46342378     -0.05164187      0.00000000
C       3.64657356      0.57745002      0.00000000
C       4.92684757     -0.10328374      0.00000000
C       6.10999734      0.52580815      0.00000000
C       7.39027135     -0.15492562      0.00000000
C       8.57342113      0.47416628      0.00000000
C       9.85369514     -0.20656749      0.00000000
C      11.03684491      0.42252441      0.00000000
C      12.31711892     -0.25820936      0.00000000
C      13.50026869      0.37088253      0.00000000
C      14.78054270     -0.30985123      0.00000000
C      15.96369248      0.31924066      0.00000000
C      17.24396649     -0.36149310      0.00000000
C      18.42711626      0.26759879      0.00000000
H      -0.96241288     -0.51172400      0.00000000
H      -0.03804045     -1.08933600      0.00000000
H       1.10254701      1.71610762      0.00000000
H       2.54402655     -1.13865760      0.00000000
H       3.56597079      1.66446575      0.00000000
H       5.00745033     -1.19029947      0.00000000
H       6.02939458      1.61282388      0.00000000
H       7.47087412     -1.24194134      0.00000000
H       8.49281836      1.56118201      0.00000000
H       9.93429790     -1.29358322      0.00000000
H      10.95624214      1.50954014      0.00000000
H      12.39772169     -1.34522509      0.00000000
H      13.41966593      1.45789826      0.00000000
H      14.86114547     -1.39686696      0.00000000
H      15.88308971      1.40625639      0.00000000
H      17.32456925     -1.44850883      0.00000000
H      19.38952914      0.77932279      0.00000000
H      18.46515671      1.35693479      0.00000000
