10
glycine (PubChem 3D conformer)
O      -1.64870000      0.65710000     -0.01040000
O      -0.48370000     -1.29340000     -0.00050000
N       1.90060000     -0.08120000     -0.00900000
C       0.73410000      0.78670000      0.00790000
C      -0.50230000     -0.06910000      0.01200000
H       0.73260000      1.42150000     -0.88240000
H       0.74640000      1.40880000      0.90690000
H       1.87430000     -0.68440000     -0.83010000
H       1.88870000     -0.69690000      0.80310000
H      -2.44470000      0.08390000     -0.02600000
