30
Cu2(OAc)4 paddlewheel idealized D4h Cu-Cu=2.62
Cu      0.00000000      0.00000000      1.31000000
Cu      0.00000000      0.00000000     -1.31000000
O       1.96000000      0.00000000      1.10000000
O       1.96000000      0.00000000     -1.10000000
C       2.55000000      0.00000000      0.00000000
C       4.05000000      0.00000000      0.00000000
H       5.14000000      0.00000000      0.00000000
H       3.68615052      1.02747923      0.00000000
H       3.68615052     -1.02747923      0.00000000
O       0.00000000      1.96000000      1.10000000
O       0.00000000      1.96000000     -1.10000000
C       0.00000000      2.55000000      0.00000000
C       0.00000000      4.05000000      0.00000000
H       0.00000000      5.14000000      0.00000000
H      -1.02747923      3.68615052      0.00000000
H       1.02747923      3.68615052      0.00000000
O      -1.96000000      0.00000000      1.10000000
O      -1.96000000      0.00000000     -1.10000000
C      -2.55000000      0.00000000      0.00000000
C      -4.05000000      0.00000000      0.00000000
H      -5.14000000      0.00000000      0.00000000
H      -3.68615052     -1.02747923      0.00000000
H      -3.68615052      1.02747923      0.00000000
O      -0.00000000     -1.96000000      1.10000000
O      -0.00000000     -1.96000000     -1.10000000
C      -0.00000000     -2.55000000      0.00000000
C      -0.00000000     -4.05000000      0.00000000
H      -0.00000000     -5.14000000      0.00000000
H       1.02747923     -3.68615052      0.00000000
H      -1.02747923     -3.68615052      0.00000000
