19
[Fe(H2O)6] octahedral r(M-O)=2.0  Fe(III) q=3 m=6
Fe      0.00000000      0.00000000      0.00000000
O       2.00000000      0.00000000      0.00000000
H       2.58588228     -0.75695033      0.00000000
H       2.58588228      0.75695033      0.00000000
O      -2.00000000      0.00000000      0.00000000
H      -2.58588228      0.75695033      0.00000000
H      -2.58588228     -0.75695033      0.00000000
O       0.00000000      2.00000000      0.00000000
H       0.75695033      2.58588228      0.00000000
H      -0.75695033      2.58588228      0.00000000
O       0.00000000     -2.00000000      0.00000000
H      -0.75695033     -2.58588228      0.00000000
H       0.75695033     -2.58588228      0.00000000
O       0.00000000      0.00000000      2.00000000
H       0.00000000      0.75695033      2.58588228
H       0.00000000     -0.75695033      2.58588228
O       0.00000000      0.00000000     -2.00000000
H       0.00000000     -0.75695033     -2.58588228
H       0.00000000      0.75695033     -2.58588228
