 $CONTRL SCFTYP=UHF RUNTYP=energy DFTTYP=NONE 
 ICHARG=0 TDDFT=MRSF MAXIT=200 MULT=3 $END
 $TDDFT NSTATE=10 IROOT=1 MULT=1 tammd=.t. $END
 $TDDFT SPCP(1)= 0.0,1.0,0.0 $END
 $SCF DIRSCF=.T. DIIS=.T. momoo=.f. $END
 $scf couple=.t. alpha(1)=0.5,0.5,0.5 beta(1)=0.5,0.5,0.5 $end
 $BASIS GBASIS=N31 NGAUSS=6 NDFUNC=1 $END
 $SYSTEM TIMLIM=999999100 MWORDS=1000 KDIAG=1 $END
 $DATA
methane
C1
 H	 1	 -0.670613881237 -2.680900143908 -0.001919949021
 H	 1	 -2.625511972588 0.817801966661 0.002256004947
 H	 1	 2.782110791094 0.421328863144 0.005561783836
 H	 1	 2.700000000000 2.700000000000 0.00000000000
 C	 6	 0.000000000000 0.000000000000  0.000000000000
 $END
