38
porphine (PubChem 3D conformer)
N       0.41270000      1.98750000      0.00600000
N      -2.17470000      0.39250000     -0.24630000
N       1.99980000     -0.37780000      0.02600000
N      -0.38610000     -1.92460000      0.03210000
C      -0.58090000      2.92330000     -0.12260000
C      -2.66830000      1.63500000      0.08770000
C       1.67060000      2.53490000     -0.08640000
C      -3.09270000     -0.59120000      0.05040000
C      -1.91870000      2.82790000     -0.09620000
C       0.12580000      4.19230000     -0.29380000
C      -3.96180000      1.43880000      0.53500000
C       1.45170000      3.96250000     -0.26730000
C      -4.22710000      0.04920000      0.51040000
C       2.87440000      1.94860000     -0.03850000
C      -2.81980000     -1.96620000     -0.17610000
C       2.97660000      0.47870000      0.08240000
C      -1.60350000     -2.53250000     -0.17530000
C       2.58760000     -1.61060000      0.15620000
C       0.49120000     -2.88490000     -0.03030000
C       1.96090000     -2.79310000      0.13490000
C       4.30850000     -0.11290000      0.25850000
C      -1.36830000     -3.94400000     -0.36680000
C       4.00910000     -1.41320000      0.29990000
C      -0.06710000     -4.22030000     -0.27980000
H      -2.50140000      3.74390000     -0.18110000
H       0.26030000      1.01000000      0.19310000
H      -1.27220000      0.21960000     -0.66540000
H      -0.34730000      5.15390000     -0.41810000
H      -4.64240000      2.21750000      0.85240000
H       2.22780000      4.70420000     -0.36980000
H      -5.14780000     -0.43540000      0.80620000
H       3.79140000      2.52310000     -0.11690000
H      -3.68870000     -2.60860000     -0.30970000
H       2.51710000     -3.72110000      0.22650000
H       5.26030000      0.37900000      0.33090000
H      -2.14430000     -4.67240000     -0.54800000
H       4.72590000     -2.21120000      0.41950000
H       0.44540000     -5.15990000     -0.36890000
