19
[Mn(H2O)6] octahedral r(M-O)=2.18  Mn(II) q=2 m=6
Mn      0.00000000      0.00000000      0.00000000
O       2.18000000      0.00000000      0.00000000
H       2.76588228     -0.75695033      0.00000000
H       2.76588228      0.75695033      0.00000000
O      -2.18000000      0.00000000      0.00000000
H      -2.76588228      0.75695033      0.00000000
H      -2.76588228     -0.75695033      0.00000000
O       0.00000000      2.18000000      0.00000000
H       0.75695033      2.76588228      0.00000000
H      -0.75695033      2.76588228      0.00000000
O       0.00000000     -2.18000000      0.00000000
H      -0.75695033     -2.76588228      0.00000000
H       0.75695033     -2.76588228      0.00000000
O       0.00000000      0.00000000      2.18000000
H       0.00000000      0.75695033      2.76588228
H       0.00000000     -0.75695033      2.76588228
O       0.00000000      0.00000000     -2.18000000
H       0.00000000     -0.75695033     -2.76588228
H       0.00000000      0.75695033     -2.76588228
