12
[Fe2S2(SH)4]2- Noodleman BS model Fe-Fe=2.70 Fe-Sbr=2.20
Fe      1.35000000      0.00000000      0.00000000
Fe     -1.35000000      0.00000000      0.00000000
S       0.00000000      1.73709528      0.00000000
S       0.00000000     -1.73709528      0.00000000
S       2.97634560      0.00000000      1.62634560
H       3.92386868      0.00000000      2.57386868
S       2.97634560      0.00000000     -1.62634560
H       3.92386868      0.00000000     -2.57386868
S      -2.97634560      0.00000000      1.62634560
H      -3.92386868      0.00000000      2.57386868
S      -2.97634560      0.00000000     -1.62634560
H      -3.92386868      0.00000000     -2.57386868
