[Molden Format]
[Atoms] AU
O  1 8   0.00000000   0.00000000  -0.07759509
H  2 1  -1.00759125   1.00759125  -1.16117854
H  3 1   1.00759125  -1.00759125  -1.16117854
[GTO]
1 0
s 6 1.00
    5.484671660000e+03     1.831074430000e-03
    8.252349460000e+02     1.395017220000e-02
    1.880469580000e+02     6.844507810000e-02
    5.296450000000e+01     2.327143360000e-01
    1.689757040000e+01     4.701928980000e-01
    5.799635340000e+00     3.585208530000e-01
s 3 1.00
    1.553961625000e+01    -1.107775495000e-01
    3.599933586000e+00    -1.480262627000e-01
    1.013761750000e+00     1.130767015000e+00
p 3 1.00
    1.553961625000e+01     7.087426823000e-02
    3.599933586000e+00     3.397528391000e-01
    1.013761750000e+00     7.271585773000e-01
s 1 1.00
    2.700058226000e-01     1.000000000000e+00
p 1 1.00
    2.700058226000e-01     1.000000000000e+00

2 0
s 3 1.00
    1.873113696000e+01     3.349460434000e-02
    2.825394365000e+00     2.347269535000e-01
    6.401216923000e-01     8.137573261000e-01
s 1 1.00
    1.612777588000e-01     1.000000000000e+00

3 0
s 3 1.00
    1.873113696000e+01     3.349460434000e-02
    2.825394365000e+00     2.347269535000e-01
    6.401216923000e-01     8.137573261000e-01
s 1 1.00
    1.612777588000e-01     1.000000000000e+00

[MO]
Sym= A
Ene=    -19.86452505
Spin= Alpha
Occup=      1.00000000
1     -0.99536845
2     -0.02553745
3      0.00000000
4     -0.00000000
5      0.00142632
6      0.01149656
7     -0.00000000
8      0.00000000
9     -0.00222696
10     -0.00017251
11     -0.00281819
12     -0.00017251
13     -0.00281819
Sym= A
Ene=     -1.29083128
Spin= Alpha
Occup=      1.00000000
1     -0.21706134
2      0.50453605
3      0.00000000
4     -0.00000000
5     -0.12270630
6      0.44907576
7      0.00000000
8     -0.00000000
9     -0.04757863
10      0.13277130
11     -0.00569258
12      0.13277130
13     -0.00569258
Sym= A
Ene=     -0.73538131
Spin= Alpha
Occup=      1.00000000
1     -0.00000000
2      0.00000000
3     -0.40438045
4      0.40438045
5      0.00000000
6      0.00000000
7     -0.19563265
8      0.19563265
9      0.00000000
10      0.23569414
11      0.07260919
12     -0.23569414
13     -0.07260919
Sym= A
Ene=     -0.60099142
Spin= Alpha
Occup=      1.00000000
1     -0.06972060
2      0.16745503
3      0.00000000
4     -0.00000000
5      0.61461897
6      0.25162336
7      0.00000000
8     -0.00000000
9      0.37881538
10     -0.12777315
11     -0.04313350
12     -0.12777315
13     -0.04313350
Sym= A
Ene=     -0.39684995
Spin= Alpha
Occup=      1.00000000
1     -0.00000000
2     -0.00000000
3     -0.50421495
4     -0.50421495
5      0.00000000
6      0.00000000
7     -0.30364411
8     -0.30364411
9     -0.00000000
10      0.00000000
11      0.00000000
12     -0.00000000
13     -0.00000000
Sym= A
Ene=      0.00224928
Spin= Alpha
Occup=      1.00000000
1     -0.09396336
2      0.21565195
3      0.00000000
4      0.00000000
5     -0.26718282
6      1.04830294
7     -0.00000000
8      0.00000000
9     -0.37870037
10     -0.13334702
11     -0.91118562
12     -0.13334702
13     -0.91118562
Sym= A
Ene=      0.15080921
Spin= Alpha
Occup=      0.00000000
1     -0.00000000
2      0.00000000
3      0.27725029
4     -0.27725029
5     -0.00000000
6     -0.00000000
7      0.50385232
8     -0.50385232
9     -0.00000000
10      0.12043872
11      1.29539871
12     -0.12043872
13     -1.29539871
Sym= A
Ene=      0.84886843
Spin= Alpha
Occup=      0.00000000
1     -0.00000000
2      0.00000000
3      0.05654133
4     -0.05654133
5     -0.00000000
6     -0.00000000
7      0.52219218
8     -0.52219218
9      0.00000000
10      0.98139516
11     -0.53172770
12     -0.98139516
13      0.53172770
Sym= A
Ene=      0.85435146
Spin= Alpha
Occup=      0.00000000
1     -0.00000000
2      0.00000000
3     -0.64326548
4     -0.64326548
5     -0.00000000
6     -0.00000000
7      0.75883032
8      0.75883032
9      0.00000000
10     -0.00000000
11      0.00000000
12      0.00000000
13      0.00000000
Sym= A
Ene=      0.87409942
Spin= Alpha
Occup=      0.00000000
1      0.01548828
2     -0.13935780
3      0.00000000
4      0.00000000
5     -0.93104512
6     -0.11980013
7     -0.00000000
8      0.00000000
9      1.00418656
10     -0.26396595
11      0.40887874
12     -0.26396595
13      0.40887874
Sym= A
Ene=      0.97348557
Spin= Alpha
Occup=      0.00000000
1      0.08062404
2     -0.55292163
3      0.00000000
4     -0.00000000
5     -0.07294895
6      0.33499894
7      0.00000000
8      0.00000000
9      0.65165154
10      0.94408479
11     -0.51021700
12      0.94408479
13     -0.51021700
Sym= A
Ene=      1.06627041
Spin= Alpha
Occup=      0.00000000
1     -0.00000000
2      0.00000000
3      0.69556659
4     -0.69556659
5     -0.00000000
6     -0.00000000
7     -1.15158434
8      1.15158434
9     -0.00000000
10      0.10050465
11     -1.04314820
12     -0.10050465
13      1.04314820
Sym= A
Ene=      1.40722432
Spin= Alpha
Occup=      0.00000000
1     -0.04372455
2      1.63716352
3     -0.00000000
4      0.00000000
5     -0.19446187
6     -2.84451525
7      0.00000000
8     -0.00000000
9      0.92517986
10      0.50228454
11      0.66101830
12      0.50228454
13      0.66101830
Sym= A
Ene=    -19.86452505
Spin= Beta
Occup=      1.00000000
1     -0.99536845
2     -0.02553745
3      0.00000000
4     -0.00000000
5      0.00142632
6      0.01149656
7     -0.00000000
8      0.00000000
9     -0.00222696
10     -0.00017251
11     -0.00281819
12     -0.00017251
13     -0.00281819
Sym= A
Ene=     -1.29083128
Spin= Beta
Occup=      1.00000000
1     -0.21706134
2      0.50453605
3      0.00000000
4     -0.00000000
5     -0.12270630
6      0.44907576
7      0.00000000
8     -0.00000000
9     -0.04757863
10      0.13277130
11     -0.00569258
12      0.13277130
13     -0.00569258
Sym= A
Ene=     -0.73538131
Spin= Beta
Occup=      1.00000000
1     -0.00000000
2      0.00000000
3     -0.40438045
4      0.40438045
5      0.00000000
6      0.00000000
7     -0.19563265
8      0.19563265
9      0.00000000
10      0.23569414
11      0.07260919
12     -0.23569414
13     -0.07260919
Sym= A
Ene=     -0.60099142
Spin= Beta
Occup=      1.00000000
1     -0.06972060
2      0.16745503
3      0.00000000
4     -0.00000000
5      0.61461897
6      0.25162336
7      0.00000000
8     -0.00000000
9      0.37881538
10     -0.12777315
11     -0.04313350
12     -0.12777315
13     -0.04313350
Sym= A
Ene=     -0.39684995
Spin= Beta
Occup=      0.00000000
1     -0.00000000
2     -0.00000000
3     -0.50421495
4     -0.50421495
5      0.00000000
6      0.00000000
7     -0.30364411
8     -0.30364411
9     -0.00000000
10      0.00000000
11      0.00000000
12     -0.00000000
13     -0.00000000
Sym= A
Ene=      0.00224928
Spin= Beta
Occup=      0.00000000
1     -0.09396336
2      0.21565195
3      0.00000000
4      0.00000000
5     -0.26718282
6      1.04830294
7     -0.00000000
8      0.00000000
9     -0.37870037
10     -0.13334702
11     -0.91118562
12     -0.13334702
13     -0.91118562
Sym= A
Ene=      0.15080921
Spin= Beta
Occup=      0.00000000
1     -0.00000000
2      0.00000000
3      0.27725029
4     -0.27725029
5     -0.00000000
6     -0.00000000
7      0.50385232
8     -0.50385232
9     -0.00000000
10      0.12043872
11      1.29539871
12     -0.12043872
13     -1.29539871
Sym= A
Ene=      0.84886843
Spin= Beta
Occup=      0.00000000
1     -0.00000000
2      0.00000000
3      0.05654133
4     -0.05654133
5     -0.00000000
6     -0.00000000
7      0.52219218
8     -0.52219218
9      0.00000000
10      0.98139516
11     -0.53172770
12     -0.98139516
13      0.53172770
Sym= A
Ene=      0.85435146
Spin= Beta
Occup=      0.00000000
1     -0.00000000
2      0.00000000
3     -0.64326548
4     -0.64326548
5     -0.00000000
6     -0.00000000
7      0.75883032
8      0.75883032
9      0.00000000
10     -0.00000000
11      0.00000000
12      0.00000000
13      0.00000000
Sym= A
Ene=      0.87409942
Spin= Beta
Occup=      0.00000000
1      0.01548828
2     -0.13935780
3      0.00000000
4      0.00000000
5     -0.93104512
6     -0.11980013
7     -0.00000000
8      0.00000000
9      1.00418656
10     -0.26396595
11      0.40887874
12     -0.26396595
13      0.40887874
Sym= A
Ene=      0.97348557
Spin= Beta
Occup=      0.00000000
1      0.08062404
2     -0.55292163
3      0.00000000
4     -0.00000000
5     -0.07294895
6      0.33499894
7      0.00000000
8      0.00000000
9      0.65165154
10      0.94408479
11     -0.51021700
12      0.94408479
13     -0.51021700
Sym= A
Ene=      1.06627041
Spin= Beta
Occup=      0.00000000
1     -0.00000000
2      0.00000000
3      0.69556659
4     -0.69556659
5     -0.00000000
6     -0.00000000
7     -1.15158434
8      1.15158434
9     -0.00000000
10      0.10050465
11     -1.04314820
12     -0.10050465
13      1.04314820
Sym= A
Ene=      1.40722432
Spin= Beta
Occup=      0.00000000
1     -0.04372455
2      1.63716352
3     -0.00000000
4      0.00000000
5     -0.19446187
6     -2.84451525
7      0.00000000
8     -0.00000000
9      0.92517986
10      0.50228454
11      0.66101830
12      0.50228454
13      0.66101830
