[Molden Format]
[Atoms] AU
O  1 8   0.00000000   0.00000000  -0.07759509
H  2 1  -1.00759125   1.00759125  -1.16117854
H  3 1   1.00759125  -1.00759125  -1.16117854
[GTO]
1 0
s 6 1.00
    5.484671660000e+03     1.831074430000e-03
    8.252349460000e+02     1.395017220000e-02
    1.880469580000e+02     6.844507810000e-02
    5.296450000000e+01     2.327143360000e-01
    1.689757040000e+01     4.701928980000e-01
    5.799635340000e+00     3.585208530000e-01
s 3 1.00
    1.553961625000e+01    -1.107775495000e-01
    3.599933586000e+00    -1.480262627000e-01
    1.013761750000e+00     1.130767015000e+00
p 3 1.00
    1.553961625000e+01     7.087426823000e-02
    3.599933586000e+00     3.397528391000e-01
    1.013761750000e+00     7.271585773000e-01
s 1 1.00
    2.700058226000e-01     1.000000000000e+00
p 1 1.00
    2.700058226000e-01     1.000000000000e+00
d 1 1.00
    8.000000000000e-01     1.000000000000e+00

2 0
s 3 1.00
    1.873113696000e+01     3.349460434000e-02
    2.825394365000e+00     2.347269535000e-01
    6.401216923000e-01     8.137573261000e-01
s 1 1.00
    1.612777588000e-01     1.000000000000e+00

3 0
s 3 1.00
    1.873113696000e+01     3.349460434000e-02
    2.825394365000e+00     2.347269535000e-01
    6.401216923000e-01     8.137573261000e-01
s 1 1.00
    1.612777588000e-01     1.000000000000e+00

[MO]
Sym= A
Ene=    -19.68325312
Spin= Alpha
Occup=      2.00000000
1     -0.99357657
2     -0.02422222
3     -0.00000000
4      0.00000000
5      0.00120521
6     -0.00760955
7      0.00000000
8     -0.00000000
9     -0.00020295
10      0.00624238
11      0.00624238
12      0.00624689
13     -0.00007537
14     -0.00000000
15      0.00000000
16     -0.00035244
17      0.00068561
18     -0.00035244
19      0.00068561
Sym= A
Ene=     -1.14161331
Spin= Alpha
Occup=      2.00000000
1     -0.20959250
2      0.47278382
3     -0.00000000
4      0.00000000
5     -0.11564445
6      0.43329627
7      0.00000000
8     -0.00000000
9     -0.05502082
10      0.00782450
11      0.00782450
12      0.01783323
13     -0.01710219
14      0.00000000
15      0.00000000
16      0.13886848
17      0.00386766
18      0.13886848
19      0.00386766
Sym= A
Ene=     -0.60639789
Spin= Alpha
Occup=      2.00000000
1     -0.00000000
2      0.00000000
3      0.36525073
4     -0.36525073
5     -0.00000000
6      0.00000000
7      0.19801906
8     -0.19801906
9     -0.00000000
10     -0.00000000
11     -0.00000000
12     -0.00000000
13     -0.00000000
14     -0.03191812
15      0.03191812
16     -0.23659883
17     -0.12392263
18      0.23659883
19      0.12392263
Sym= A
Ene=     -0.45366760
Spin= Alpha
Occup=      2.00000000
1     -0.08137241
2      0.17045946
3      0.00000000
4     -0.00000000
5      0.55858253
6      0.37416498
7      0.00000000
8     -0.00000000
9      0.38793415
10      0.00328916
11      0.00328916
12     -0.05048821
13      0.00184432
14     -0.00000000
15      0.00000000
16     -0.13987592
17     -0.09738241
18     -0.13987592
19     -0.09738241
Sym= A
Ene=     -0.37796978
Spin= Alpha
Occup=      2.00000000
1     -0.00000000
2     -0.00000000
3     -0.45469969
4     -0.45469969
5     -0.00000000
6      0.00000000
7     -0.35900372
8     -0.35900372
9     -0.00000000
10     -0.00000000
11     -0.00000000
12     -0.00000000
13     -0.00000000
14      0.02508341
15      0.02508341
16     -0.00000000
17     -0.00000000
18      0.00000000
19      0.00000000
Sym= A
Ene=      0.11479101
Spin= Alpha
Occup=      0.00000000
1      0.10197296
2     -0.09255027
3     -0.00000000
4      0.00000000
5      0.24378699
6     -1.36398367
7     -0.00000000
8      0.00000000
9      0.48167200
10      0.05815644
11      0.05815644
12      0.03625428
13      0.00852583
14     -0.00000000
15      0.00000000
16      0.07448278
17      1.01809496
18      0.07448278
19      1.01809496
Sym= A
Ene=      0.20528692
Spin= Alpha
Occup=      0.00000000
1     -0.00000000
2      0.00000000
3     -0.26312901
4      0.26312901
5     -0.00000000
6     -0.00000000
7     -0.56672286
8      0.56672286
9     -0.00000000
10      0.00000000
11      0.00000000
12      0.00000000
13      0.00000000
14      0.01507933
15     -0.01507933
16     -0.07494052
17     -1.36243926
18      0.07494052
19      1.36243926
Sym= A
Ene=      0.87256475
Spin= Alpha
Occup=      0.00000000
1      0.00000000
2      0.00000000
3      0.09593737
4     -0.09593737
5     -0.00000000
6     -0.00000000
7      0.42382625
8     -0.42382625
9     -0.00000000
10      0.00000000
11      0.00000000
12      0.00000000
13      0.00000000
14      0.14096039
15     -0.14096039
16      0.84349888
17     -0.51205502
18     -0.84349888
19      0.51205502
Sym= A
Ene=      0.97737456
Spin= Alpha
Occup=      0.00000000
1     -0.00091540
2     -0.78795496
3      0.00000000
4      0.00000000
5     -0.68929234
6      1.36692398
7     -0.00000000
8     -0.00000000
9      0.89100519
10     -0.24814063
11     -0.24814063
12     -0.28387739
13     -0.06235421
14      0.00000000
15     -0.00000000
16      0.31987988
17     -0.25921801
18      0.31987988
19     -0.25921801
Sym= A
Ene=      0.98176619
Spin= Alpha
Occup=      0.00000000
1      0.04457665
2     -0.26552135
3      0.00000000
4      0.00000000
5      0.58001429
6      0.24476572
7     -0.00000000
8     -0.00000000
9     -0.15252624
10     -0.01537540
11     -0.01537540
12     -0.04427593
13     -0.19574867
14      0.00000000
15     -0.00000000
16      0.80246686
17     -0.54523868
18      0.80246686
19     -0.54523868
Sym= A
Ene=      0.98647286
Spin= Alpha
Occup=      0.00000000
1      0.00000000
2     -0.00000000
3     -0.67914561
4     -0.67914561
5      0.00000000
6      0.00000000
7      0.73386839
8      0.73386839
9      0.00000000
10     -0.00000000
11     -0.00000000
12     -0.00000000
13     -0.00000000
14     -0.01085112
15     -0.01085112
16      0.00000000
17     -0.00000000
18      0.00000000
19     -0.00000000
Sym= A
Ene=      1.17931560
Spin= Alpha
Occup=      0.00000000
1     -0.00000000
2     -0.00000000
3     -0.71805496
4      0.71805496
5      0.00000000
6      0.00000000
7      1.13637957
8     -1.13637957
9     -0.00000000
10     -0.00000000
11     -0.00000000
12     -0.00000000
13      0.00000000
14     -0.00652705
15      0.00652705
16     -0.06717299
17      0.96233714
18      0.06717299
19     -0.96233714
Sym= A
Ene=      1.27176488
Spin= Alpha
Occup=      0.00000000
1     -0.08398609
2     -1.48322052
3      0.00000000
4     -0.00000000
5      0.42265776
6      3.70091797
7     -0.00000000
8      0.00000000
9     -1.10206495
10     -0.47027128
11     -0.47027128
12     -0.39821096
13      0.21545665
14      0.00000000
15     -0.00000000
16     -0.31537956
17     -0.81979885
18     -0.31537956
19     -0.81979885
Sym= A
Ene=      1.83111944
Spin= Alpha
Occup=      0.00000000
1      0.00784085
2      0.08756882
3      0.00000000
4     -0.00000000
5     -0.00463079
6     -0.25653399
7     -0.00000000
8      0.00000000
9      0.14131115
10     -0.47269825
11     -0.47269825
12      1.01198983
13      0.10552589
14      0.00000000
15     -0.00000000
16      0.08588489
17      0.04227746
18      0.08588489
19      0.04227746
Sym= A
Ene=      1.84121164
Spin= Alpha
Occup=      0.00000000
1      0.00000000
2      0.00000000
3     -0.00000000
4      0.00000000
5     -0.00000000
6     -0.00000000
7      0.00000000
8     -0.00000000
9      0.00000000
10     -0.86602540
11      0.86602540
12      0.00000000
13      0.00000000
14     -0.00000000
15     -0.00000000
16      0.00000000
17      0.00000000
18      0.00000000
19     -0.00000000
Sym= A
Ene=      1.87922489
Spin= Alpha
Occup=      0.00000000
1      0.00000000
2     -0.00000000
3     -0.00571193
4     -0.00571193
5     -0.00000000
6     -0.00000000
7     -0.02401478
8     -0.02401478
9      0.00000000
10      0.00000000
11     -0.00000000
12      0.00000000
13     -0.00000000
14     -0.70657843
15     -0.70657843
16     -0.00000000
17     -0.00000000
18      0.00000000
19      0.00000000
Sym= A
Ene=      2.42271970
Spin= Alpha
Occup=      0.00000000
1      0.05624909
2      0.49778350
3     -0.00000000
4     -0.00000000
5     -0.03928517
6     -1.60140210
7      0.00000000
8     -0.00000000
9      0.74658898
10      0.17684625
11      0.17684625
12     -0.02475307
13      1.10031419
14     -0.00000000
15     -0.00000000
16      0.85352289
17      0.15198838
18      0.85352289
19      0.15198838
Sym= A
Ene=      2.73987642
Spin= Alpha
Occup=      0.00000000
1      0.00000000
2     -0.00000000
3     -0.00811800
4      0.00811800
5      0.00000000
6      0.00000000
7      0.64108711
8     -0.64108711
9     -0.00000000
10      0.00000000
11      0.00000000
12      0.00000000
13      0.00000000
14     -0.91635299
15      0.91635299
16      0.97393606
17     -0.02378298
18     -0.97393606
19      0.02378298
Sym= A
Ene=      3.71121122
Spin= Alpha
Occup=      0.00000000
1      0.46897875
2     -0.29056213
3      0.00000000
4      0.00000000
5     -0.11874885
6     -3.70968100
7     -0.00000000
8      0.00000000
9      0.32280982
10      1.55675049
11      1.55675049
12      1.55735429
13      0.01911485
14      0.00000000
15     -0.00000000
16     -0.13468777
17      0.56808397
18     -0.13468777
19      0.56808397
[FREQ]
   1725.25
   4032.87
   4161.36
[INT]
      4.09524733
      0.40007242
      1.85549795
[RAMAN]
     80.30040120
    930.35624834
    459.43854334
[FR-COORD]
O                   0.00000000               0.00000000              -0.07759509
H                  -1.00759125               1.00759125              -1.16117854
H                   1.00759125              -1.00759125              -1.16117854
[FR-NORM-COORD]
  vibration      1
              0.00000000              -0.00000000               0.06794927
              0.29046576              -0.29046576              -0.53920199
             -0.29046576               0.29046576              -0.53920199
  vibration      2
              0.00000000              -0.00000000              -0.04878323
              0.40458446              -0.40458446               0.38711253
             -0.40458446               0.40458446               0.38711253
  vibration      3
             -0.04807730               0.04807730              -0.00000000
              0.38151070              -0.38151070               0.41028411
              0.38151070              -0.38151070              -0.41028411
