[Molden Format]
[Atoms] AU
O  1 8  -0.00000000   0.00000000  -0.07759509
H  2 1  -1.00759125   1.00759125  -1.16117854
H  3 1   1.00759125  -1.00759125  -1.16117854
[GTO]
1 0
s 6 1.00
    5.484671660000e+03     1.831074430000e-03
    8.252349460000e+02     1.395017220000e-02
    1.880469580000e+02     6.844507810000e-02
    5.296450000000e+01     2.327143360000e-01
    1.689757040000e+01     4.701928980000e-01
    5.799635340000e+00     3.585208530000e-01
s 3 1.00
    1.553961625000e+01    -1.107775495000e-01
    3.599933586000e+00    -1.480262627000e-01
    1.013761750000e+00     1.130767015000e+00
p 3 1.00
    1.553961625000e+01     7.087426823000e-02
    3.599933586000e+00     3.397528391000e-01
    1.013761750000e+00     7.271585773000e-01
s 1 1.00
    2.700058226000e-01     1.000000000000e+00
p 1 1.00
    2.700058226000e-01     1.000000000000e+00
d 1 1.00
    8.000000000000e-01     1.000000000000e+00

2 0
s 3 1.00
    1.873113696000e+01     3.349460434000e-02
    2.825394365000e+00     2.347269535000e-01
    6.401216923000e-01     8.137573261000e-01
s 1 1.00
    1.612777588000e-01     1.000000000000e+00

3 0
s 3 1.00
    1.873113696000e+01     3.349460434000e-02
    2.825394365000e+00     2.347269535000e-01
    6.401216923000e-01     8.137573261000e-01
s 1 1.00
    1.612777588000e-01     1.000000000000e+00

[MO]
Sym= A
Ene=    -18.75137522
Spin= Alpha
Occup=      2.00000000
1     -0.99255929
2     -0.02721294
3     -0.00000000
4      0.00000000
5      0.00107535
6     -0.01090080
7      0.00000000
8     -0.00000000
9      0.00004744
10      0.00833079
11      0.00833079
12      0.00832339
13      0.00001954
14     -0.00000000
15      0.00000000
16     -0.00035287
17      0.00114383
18     -0.00035287
19      0.00114383
Sym= A
Ene=     -0.91352180
Spin= Alpha
Occup=      2.00000000
1      0.20800432
2     -0.46558160
3      0.00000000
4     -0.00000000
5      0.13892213
6     -0.42583615
7      0.00000000
8     -0.00000000
9      0.06259096
10     -0.00503952
11     -0.00503952
12     -0.01724289
13      0.01807304
14      0.00000000
15      0.00000000
16     -0.14556832
17     -0.00653159
18     -0.14556832
19     -0.00653159
Sym= A
Ene=     -0.47133660
Spin= Alpha
Occup=      2.00000000
1     -0.00000000
2      0.00000000
3      0.36801094
4     -0.36801094
5     -0.00000000
6      0.00000000
7      0.18384956
8     -0.18384956
9     -0.00000000
10     -0.00000000
11     -0.00000000
12     -0.00000000
13     -0.00000000
14     -0.02747505
15      0.02747505
16     -0.24227207
17     -0.13768649
18      0.24227207
19      0.13768649
Sym= A
Ene=     -0.30887791
Spin= Alpha
Occup=      2.00000000
1      0.09061918
2     -0.18185877
3      0.00000000
4      0.00000000
5     -0.55313589
6     -0.41987169
7     -0.00000000
8      0.00000000
9     -0.37424781
10     -0.00196968
11     -0.00196968
12      0.05312234
13      0.00327402
14      0.00000000
15     -0.00000000
16      0.13989854
17      0.11136679
18      0.13989854
19      0.11136679
Sym= A
Ene=     -0.22853750
Spin= Alpha
Occup=      2.00000000
1      0.00000000
2     -0.00000000
3     -0.45346447
4     -0.45346447
5     -0.00000000
6     -0.00000000
7     -0.36028880
8     -0.36028880
9     -0.00000000
10      0.00000000
11     -0.00000000
12     -0.00000000
13     -0.00000000
14      0.02620878
15      0.02620878
16     -0.00000000
17     -0.00000000
18     -0.00000000
19      0.00000000
Sym= A
Ene=      0.04832942
Spin= Alpha
Occup=      0.00000000
1     -0.10238546
2      0.13649676
3     -0.00000000
4      0.00000000
5     -0.28287524
6      1.27040755
7     -0.00000000
8      0.00000000
9     -0.45885792
10     -0.04958493
11     -0.04958493
12     -0.02502454
13     -0.00698458
14      0.00000000
15     -0.00000000
16     -0.10523372
17     -0.97328321
18     -0.10523372
19     -0.97328321
Sym= A
Ene=      0.13282776
Spin= Alpha
Occup=      0.00000000
1     -0.00000000
2      0.00000000
3      0.30206309
4     -0.30206309
5     -0.00000000
6      0.00000000
7      0.53477001
8     -0.53477001
9     -0.00000000
10      0.00000000
11      0.00000000
12      0.00000000
13     -0.00000000
14     -0.01233209
15      0.01233209
16      0.11627763
17      1.29242313
18     -0.11627763
19     -1.29242313
Sym= A
Ene=      0.74380480
Spin= Alpha
Occup=      0.00000000
1     -0.00000000
2      0.00000000
3     -0.12766395
4      0.12766395
5     -0.00000000
6     -0.00000000
7     -0.32604166
8      0.32604166
9     -0.00000000
10      0.00000000
11      0.00000000
12      0.00000000
13      0.00000000
14     -0.14357717
15      0.14357717
16     -0.83955611
17      0.63150421
18      0.83955611
19     -0.63150421
Sym= A
Ene=      0.81945519
Spin= Alpha
Occup=      0.00000000
1      0.03512503
2     -0.03371705
3     -0.00000000
4     -0.00000000
5      0.77695822
6     -0.04265393
7      0.00000000
8      0.00000000
9     -0.49287461
10      0.04951866
11      0.04951866
12      0.03629429
13     -0.15200993
14     -0.00000000
15      0.00000000
16      0.64117474
17     -0.49884436
18      0.64117474
19     -0.49884436
Sym= A
Ene=      0.84316422
Spin= Alpha
Occup=      0.00000000
1     -0.00000000
2      0.00000000
3      0.67997586
4      0.67997586
5      0.00000000
6     -0.00000000
7     -0.73317049
8     -0.73317049
9     -0.00000000
10      0.00000000
11      0.00000000
12      0.00000000
13      0.00000000
14      0.01217937
15      0.01217937
16     -0.00000000
17     -0.00000000
18     -0.00000000
19      0.00000000
Sym= A
Ene=      0.85287628
Spin= Alpha
Occup=      0.00000000
1     -0.02154166
2      0.77338862
3     -0.00000000
4     -0.00000000
5      0.47963189
6     -1.20601048
7      0.00000000
8      0.00000000
9     -0.83010906
10      0.20547674
11      0.20547674
12      0.25628534
13      0.12959499
14      0.00000000
15     -0.00000000
16     -0.57830833
17      0.40370738
18     -0.57830833
19      0.40370738
Sym= A
Ene=      1.01785333
Spin= Alpha
Occup=      0.00000000
1     -0.00000000
2     -0.00000000
3      0.69599986
4     -0.69599986
5      0.00000000
6      0.00000000
7     -1.18177697
8      1.18177697
9     -0.00000000
10     -0.00000000
11     -0.00000000
12     -0.00000000
13      0.00000000
14     -0.00704738
15      0.00704738
16      0.01796058
17     -0.98576563
18     -0.01796058
19      0.98576563
Sym= A
Ene=      1.14523512
Spin= Alpha
Occup=      0.00000000
1     -0.07932796
2     -1.50985518
3     -0.00000000
4      0.00000000
5      0.36793436
6      3.71833745
7      0.00000000
8     -0.00000000
9     -1.05209467
10     -0.46456391
11     -0.46456391
12     -0.38166338
13      0.22745849
14      0.00000000
15     -0.00000000
16     -0.30893622
17     -0.83225222
18     -0.30893622
19     -0.83225222
Sym= A
Ene=      1.65955121
Spin= Alpha
Occup=      0.00000000
1     -0.00833245
2     -0.10081392
3      0.00000000
4     -0.00000000
5      0.00778437
6      0.28886285
7      0.00000000
8      0.00000000
9     -0.15664116
10      0.47004442
11      0.47004442
12     -1.01301490
13     -0.10652069
14      0.00000000
15      0.00000000
16     -0.09320178
17     -0.04934542
18     -0.09320178
19     -0.04934542
Sym= A
Ene=      1.67005971
Spin= Alpha
Occup=      0.00000000
1      0.00000000
2      0.00000000
3     -0.00000000
4      0.00000000
5     -0.00000000
6     -0.00000000
7      0.00000000
8     -0.00000000
9      0.00000000
10      0.86602540
11     -0.86602540
12      0.00000000
13      0.00000000
14     -0.00000000
15     -0.00000000
16      0.00000000
17      0.00000000
18      0.00000000
19      0.00000000
Sym= A
Ene=      1.70970496
Spin= Alpha
Occup=      0.00000000
1     -0.00000000
2      0.00000000
3      0.00509977
4      0.00509977
5      0.00000000
6      0.00000000
7      0.02600406
8      0.02600406
9      0.00000000
10      0.00000000
11     -0.00000000
12      0.00000000
13      0.00000000
14      0.70651593
15      0.70651593
16     -0.00000000
17     -0.00000000
18      0.00000000
19      0.00000000
Sym= A
Ene=      2.23250514
Spin= Alpha
Occup=      0.00000000
1      0.05338028
2      0.51681367
3     -0.00000000
4      0.00000000
5     -0.04289690
6     -1.61255410
7      0.00000000
8     -0.00000000
9      0.75490050
10      0.17406304
11      0.17406304
12     -0.03290791
13      1.09875095
14     -0.00000000
15      0.00000000
16      0.85182420
17      0.15681272
18      0.85182420
19      0.15681272
Sym= A
Ene=      2.53667757
Spin= Alpha
Occup=      0.00000000
1     -0.00000000
2     -0.00000000
3     -0.01139002
4      0.01139002
5      0.00000000
6      0.00000000
7      0.64783229
8     -0.64783229
9     -0.00000000
10     -0.00000000
11     -0.00000000
12      0.00000000
13     -0.00000000
14     -0.91612792
15      0.91612792
16      0.97404097
17     -0.02469249
18     -0.97404097
19      0.02469249
Sym= A
Ene=      3.47976710
Spin= Alpha
Occup=      0.00000000
1     -0.47149492
2      0.25987302
3     -0.00000000
4      0.00000000
5      0.12000956
6      3.77726115
7      0.00000000
8     -0.00000000
9     -0.33309074
10     -1.56536235
11     -1.56536235
12     -1.56577917
13     -0.02371629
14     -0.00000000
15      0.00000000
16      0.13054560
17     -0.58219555
18      0.13054560
19     -0.58219555
[FREQ]
   1577.29
   4012.90
   4161.30
[INT]
      3.38976112
      0.07655595
      1.09464762
[RAMAN]
     89.79482377
    910.20024097
    423.26163083
[FR-COORD]
O                  -0.00000000               0.00000000              -0.07759509
H                  -1.00759125               1.00759125              -1.16117854
H                   1.00759125              -1.00759125              -1.16117854
[FR-NORM-COORD]
  vibration      1
              0.00000000              -0.00000000               0.06815888
              0.28871943              -0.28871943              -0.54086531
             -0.28871943               0.28871943              -0.54086531
  vibration      2
              0.00000000              -0.00000000              -0.04848994
              0.40583252              -0.40583252               0.38478515
             -0.40583252               0.40583252               0.38478515
  vibration      3
             -0.04807730               0.04807730              -0.00000000
              0.38151070              -0.38151070               0.41028411
              0.38151070              -0.38151070              -0.41028411
